50

100 11 268
99 35 278
97 27 219
97 32 162
97 24 206
93 20 262
93 3 193
92 46 179
92 30 185
88 9 245
83 30 194
83 6 205
79 23 198
76 10 141
76 24 152
75 37 227
72 31 223
71 13 212
70 16 172
69 9 196
67 30 292
66 20 223
63 18 259
62 11 144
62 5 199
61 10 263
61 23 299
51 10 159
50 15 151
44 7 254
44 6 233
43 15 262
43 8 238
40 16 289
39 3 145
37 6 181
37 18 210
30 14 277
23 10 284
20 1 221
19 2 186
18 1 297
17 4 147
15 8 140
14 6 272
13 5 296
13 1 235
12 6 160
8 2 216
8 1 249
